(set-info :smt-lib-version 2.6)
(set-logic QF_UF)
(set-info :source |
http://www.cs.bham.ac.uk/~vxs/quasigroups/benchmark/

|)
(set-info :category "crafted")
(set-info :status unsat)
(declare-sort U 0)
(declare-sort I 0)
(declare-fun unit () I)
(declare-fun op (I I) I)
(declare-fun e5 () I)
(declare-fun e4 () I)
(declare-fun e3 () I)
(declare-fun e2 () I)
(declare-fun e1 () I)
(declare-fun e0 () I)
(assert (and (and (and (and (and (and (and (and (and (and (or (or (or (or (or (= (op e0 e0) e0) (= (op e0 e0) e1)) (= (op e0 e0) e2)) (= (op e0 e0) e3)) (= (op e0 e0) e4)) (= (op e0 e0) e5)) (or (or (or (or (or (= (op e0 e1) e0) (= (op e0 e1) e1)) (= (op e0 e1) e2)) (= (op e0 e1) e3)) (= (op e0 e1) e4)) (= (op e0 e1) e5))) (or (or (or (or (or (= (op e0 e2) e0) (= (op e0 e2) e1)) (= (op e0 e2) e2)) (= (op e0 e2) e3)) (= (op e0 e2) e4)) (= (op e0 e2) e5))) (or (or (or (or (or (= (op e0 e3) e0) (= (op e0 e3) e1)) (= (op e0 e3) e2)) (= (op e0 e3) e3)) (= (op e0 e3) e4)) (= (op e0 e3) e5))) (or (or (or (or (or (= (op e0 e4) e0) (= (op e0 e4) e1)) (= (op e0 e4) e2)) (= (op e0 e4) e3)) (= (op e0 e4) e4)) (= (op e0 e4) e5))) (or (or (or (or (or (= (op e0 e5) e0) (= (op e0 e5) e1)) (= (op e0 e5) e2)) (= (op e0 e5) e3)) (= (op e0 e5) e4)) (= (op e0 e5) e5))) (and (and (and (and (and (or (or (or (or (or (= (op e1 e0) e0) (= (op e1 e0) e1)) (= (op e1 e0) e2)) (= (op e1 e0) e3)) (= (op e1 e0) e4)) (= (op e1 e0) e5)) (or (or (or (or (or (= (op e1 e1) e0) (= (op e1 e1) e1)) (= (op e1 e1) e2)) (= (op e1 e1) e3)) (= (op e1 e1) e4)) (= (op e1 e1) e5))) (or (or (or (or (or (= (op e1 e2) e0) (= (op e1 e2) e1)) (= (op e1 e2) e2)) (= (op e1 e2) e3)) (= (op e1 e2) e4)) (= (op e1 e2) e5))) (or (or (or (or (or (= (op e1 e3) e0) (= (op e1 e3) e1)) (= (op e1 e3) e2)) (= (op e1 e3) e3)) (= (op e1 e3) e4)) (= (op e1 e3) e5))) (or (or (or (or (or (= (op e1 e4) e0) (= (op e1 e4) e1)) (= (op e1 e4) e2)) (= (op e1 e4) e3)) (= (op e1 e4) e4)) (= (op e1 e4) e5))) (or (or (or (or (or (= (op e1 e5) e0) (= (op e1 e5) e1)) (= (op e1 e5) e2)) (= (op e1 e5) e3)) (= (op e1 e5) e4)) (= (op e1 e5) e5)))) (and (and (and (and (and (or (or (or (or (or (= (op e2 e0) e0) (= (op e2 e0) e1)) (= (op e2 e0) e2)) (= (op e2 e0) e3)) (= (op e2 e0) e4)) (= (op e2 e0) e5)) (or (or (or (or (or (= (op e2 e1) e0) (= (op e2 e1) e1)) (= (op e2 e1) e2)) (= (op e2 e1) e3)) (= (op e2 e1) e4)) (= (op e2 e1) e5))) (or (or (or (or (or (= (op e2 e2) e0) (= (op e2 e2) e1)) (= (op e2 e2) e2)) (= (op e2 e2) e3)) (= (op e2 e2) e4)) (= (op e2 e2) e5))) (or (or (or (or (or (= (op e2 e3) e0) (= (op e2 e3) e1)) (= (op e2 e3) e2)) (= (op e2 e3) e3)) (= (op e2 e3) e4)) (= (op e2 e3) e5))) (or (or (or (or (or (= (op e2 e4) e0) (= (op e2 e4) e1)) (= (op e2 e4) e2)) (= (op e2 e4) e3)) (= (op e2 e4) e4)) (= (op e2 e4) e5))) (or (or (or (or (or (= (op e2 e5) e0) (= (op e2 e5) e1)) (= (op e2 e5) e2)) (= (op e2 e5) e3)) (= (op e2 e5) e4)) (= (op e2 e5) e5)))) (and (and (and (and (and (or (or (or (or (or (= (op e3 e0) e0) (= (op e3 e0) e1)) (= (op e3 e0) e2)) (= (op e3 e0) e3)) (= (op e3 e0) e4)) (= (op e3 e0) e5)) (or (or (or (or (or (= (op e3 e1) e0) (= (op e3 e1) e1)) (= (op e3 e1) e2)) (= (op e3 e1) e3)) (= (op e3 e1) e4)) (= (op e3 e1) e5))) (or (or (or (or (or (= (op e3 e2) e0) (= (op e3 e2) e1)) (= (op e3 e2) e2)) (= (op e3 e2) e3)) (= (op e3 e2) e4)) (= (op e3 e2) e5))) (or (or (or (or (or (= (op e3 e3) e0) (= (op e3 e3) e1)) (= (op e3 e3) e2)) (= (op e3 e3) e3)) (= (op e3 e3) e4)) (= (op e3 e3) e5))) (or (or (or (or (or (= (op e3 e4) e0) (= (op e3 e4) e1)) (= (op e3 e4) e2)) (= (op e3 e4) e3)) (= (op e3 e4) e4)) (= (op e3 e4) e5))) (or (or (or (or (or (= (op e3 e5) e0) (= (op e3 e5) e1)) (= (op e3 e5) e2)) (= (op e3 e5) e3)) (= (op e3 e5) e4)) (= (op e3 e5) e5)))) (and (and (and (and (and (or (or (or (or (or (= (op e4 e0) e0) (= (op e4 e0) e1)) (= (op e4 e0) e2)) (= (op e4 e0) e3)) (= (op e4 e0) e4)) (= (op e4 e0) e5)) (or (or (or (or (or (= (op e4 e1) e0) (= (op e4 e1) e1)) (= (op e4 e1) e2)) (= (op e4 e1) e3)) (= (op e4 e1) e4)) (= (op e4 e1) e5))) (or (or (or (or (or (= (op e4 e2) e0) (= (op e4 e2) e1)) (= (op e4 e2) e2)) (= (op e4 e2) e3)) (= (op e4 e2) e4)) (= (op e4 e2) e5))) (or (or (or (or (or (= (op e4 e3) e0) (= (op e4 e3) e1)) (= (op e4 e3) e2)) (= (op e4 e3) e3)) (= (op e4 e3) e4)) (= (op e4 e3) e5))) (or (or (or (or (or (= (op e4 e4) e0) (= (op e4 e4) e1)) (= (op e4 e4) e2)) (= (op e4 e4) e3)) (= (op e4 e4) e4)) (= (op e4 e4) e5))) (or (or (or (or (or (= (op e4 e5) e0) (= (op e4 e5) e1)) (= (op e4 e5) e2)) (= (op e4 e5) e3)) (= (op e4 e5) e4)) (= (op e4 e5) e5)))) (and (and (and (and (and (or (or (or (or (or (= (op e5 e0) e0) (= (op e5 e0) e1)) (= (op e5 e0) e2)) (= (op e5 e0) e3)) (= (op e5 e0) e4)) (= (op e5 e0) e5)) (or (or (or (or (or (= (op e5 e1) e0) (= (op e5 e1) e1)) (= (op e5 e1) e2)) (= (op e5 e1) e3)) (= (op e5 e1) e4)) (= (op e5 e1) e5))) (or (or (or (or (or (= (op e5 e2) e0) (= (op e5 e2) e1)) (= (op e5 e2) e2)) (= (op e5 e2) e3)) (= (op e5 e2) e4)) (= (op e5 e2) e5))) (or (or (or (or (or (= (op e5 e3) e0) (= (op e5 e3) e1)) (= (op e5 e3) e2)) (= (op e5 e3) e3)) (= (op e5 e3) e4)) (= (op e5 e3) e5))) (or (or (or (or (or (= (op e5 e4) e0) (= (op e5 e4) e1)) (= (op e5 e4) e2)) (= (op e5 e4) e3)) (= (op e5 e4) e4)) (= (op e5 e4) e5))) (or (or (or (or (or (= (op e5 e5) e0) (= (op e5 e5) e1)) (= (op e5 e5) e2)) (= (op e5 e5) e3)) (= (op e5 e5) e4)) (= (op e5 e5) e5)))))
(assert (and (and (and (and (and (and (and (and (and (and (and (or (or (or (or (or (= (op e0 e0) e0) (= (op e0 e1) e0)) (= (op e0 e2) e0)) (= (op e0 e3) e0)) (= (op e0 e4) e0)) (= (op e0 e5) e0)) (or (or (or (or (or (= (op e0 e0) e0) (= (op e1 e0) e0)) (= (op e2 e0) e0)) (= (op e3 e0) e0)) (= (op e4 e0) e0)) (= (op e5 e0) e0))) (and (or (or (or (or (or (= (op e0 e0) e1) (= (op e0 e1) e1)) (= (op e0 e2) e1)) (= (op e0 e3) e1)) (= (op e0 e4) e1)) (= (op e0 e5) e1)) (or (or (or (or (or (= (op e0 e0) e1) (= (op e1 e0) e1)) (= (op e2 e0) e1)) (= (op e3 e0) e1)) (= (op e4 e0) e1)) (= (op e5 e0) e1)))) (and (or (or (or (or (or (= (op e0 e0) e2) (= (op e0 e1) e2)) (= (op e0 e2) e2)) (= (op e0 e3) e2)) (= (op e0 e4) e2)) (= (op e0 e5) e2)) (or (or (or (or (or (= (op e0 e0) e2) (= (op e1 e0) e2)) (= (op e2 e0) e2)) (= (op e3 e0) e2)) (= (op e4 e0) e2)) (= (op e5 e0) e2)))) (and (or (or (or (or (or (= (op e0 e0) e3) (= (op e0 e1) e3)) (= (op e0 e2) e3)) (= (op e0 e3) e3)) (= (op e0 e4) e3)) (= (op e0 e5) e3)) (or (or (or (or (or (= (op e0 e0) e3) (= (op e1 e0) e3)) (= (op e2 e0) e3)) (= (op e3 e0) e3)) (= (op e4 e0) e3)) (= (op e5 e0) e3)))) (and (or (or (or (or (or (= (op e0 e0) e4) (= (op e0 e1) e4)) (= (op e0 e2) e4)) (= (op e0 e3) e4)) (= (op e0 e4) e4)) (= (op e0 e5) e4)) (or (or (or (or (or (= (op e0 e0) e4) (= (op e1 e0) e4)) (= (op e2 e0) e4)) (= (op e3 e0) e4)) (= (op e4 e0) e4)) (= (op e5 e0) e4)))) (and (or (or (or (or (or (= (op e0 e0) e5) (= (op e0 e1) e5)) (= (op e0 e2) e5)) (= (op e0 e3) e5)) (= (op e0 e4) e5)) (= (op e0 e5) e5)) (or (or (or (or (or (= (op e0 e0) e5) (= (op e1 e0) e5)) (= (op e2 e0) e5)) (= (op e3 e0) e5)) (= (op e4 e0) e5)) (= (op e5 e0) e5)))) (and (and (and (and (and (and (or (or (or (or (or (= (op e1 e0) e0) (= (op e1 e1) e0)) (= (op e1 e2) e0)) (= (op e1 e3) e0)) (= (op e1 e4) e0)) (= (op e1 e5) e0)) (or (or (or (or (or (= (op e0 e1) e0) (= (op e1 e1) e0)) (= (op e2 e1) e0)) (= (op e3 e1) e0)) (= (op e4 e1) e0)) (= (op e5 e1) e0))) (and (or (or (or (or (or (= (op e1 e0) e1) (= (op e1 e1) e1)) (= (op e1 e2) e1)) (= (op e1 e3) e1)) (= (op e1 e4) e1)) (= (op e1 e5) e1)) (or (or (or (or (or (= (op e0 e1) e1) (= (op e1 e1) e1)) (= (op e2 e1) e1)) (= (op e3 e1) e1)) (= (op e4 e1) e1)) (= (op e5 e1) e1)))) (and (or (or (or (or (or (= (op e1 e0) e2) (= (op e1 e1) e2)) (= (op e1 e2) e2)) (= (op e1 e3) e2)) (= (op e1 e4) e2)) (= (op e1 e5) e2)) (or (or (or (or (or (= (op e0 e1) e2) (= (op e1 e1) e2)) (= (op e2 e1) e2)) (= (op e3 e1) e2)) (= (op e4 e1) e2)) (= (op e5 e1) e2)))) (and (or (or (or (or (or (= (op e1 e0) e3) (= (op e1 e1) e3)) (= (op e1 e2) e3)) (= (op e1 e3) e3)) (= (op e1 e4) e3)) (= (op e1 e5) e3)) (or (or (or (or (or (= (op e0 e1) e3) (= (op e1 e1) e3)) (= (op e2 e1) e3)) (= (op e3 e1) e3)) (= (op e4 e1) e3)) (= (op e5 e1) e3)))) (and (or (or (or (or (or (= (op e1 e0) e4) (= (op e1 e1) e4)) (= (op e1 e2) e4)) (= (op e1 e3) e4)) (= (op e1 e4) e4)) (= (op e1 e5) e4)) (or (or (or (or (or (= (op e0 e1) e4) (= (op e1 e1) e4)) (= (op e2 e1) e4)) (= (op e3 e1) e4)) (= (op e4 e1) e4)) (= (op e5 e1) e4)))) (and (or (or (or (or (or (= (op e1 e0) e5) (= (op e1 e1) e5)) (= (op e1 e2) e5)) (= (op e1 e3) e5)) (= (op e1 e4) e5)) (= (op e1 e5) e5)) (or (or (or (or (or (= (op e0 e1) e5) (= (op e1 e1) e5)) (= (op e2 e1) e5)) (= (op e3 e1) e5)) (= (op e4 e1) e5)) (= (op e5 e1) e5))))) (and (and (and (and (and (and (or (or (or (or (or (= (op e2 e0) e0) (= (op e2 e1) e0)) (= (op e2 e2) e0)) (= (op e2 e3) e0)) (= (op e2 e4) e0)) (= (op e2 e5) e0)) (or (or (or (or (or (= (op e0 e2) e0) (= (op e1 e2) e0)) (= (op e2 e2) e0)) (= (op e3 e2) e0)) (= (op e4 e2) e0)) (= (op e5 e2) e0))) (and (or (or (or (or (or (= (op e2 e0) e1) (= (op e2 e1) e1)) (= (op e2 e2) e1)) (= (op e2 e3) e1)) (= (op e2 e4) e1)) (= (op e2 e5) e1)) (or (or (or (or (or (= (op e0 e2) e1) (= (op e1 e2) e1)) (= (op e2 e2) e1)) (= (op e3 e2) e1)) (= (op e4 e2) e1)) (= (op e5 e2) e1)))) (and (or (or (or (or (or (= (op e2 e0) e2) (= (op e2 e1) e2)) (= (op e2 e2) e2)) (= (op e2 e3) e2)) (= (op e2 e4) e2)) (= (op e2 e5) e2)) (or (or (or (or (or (= (op e0 e2) e2) (= (op e1 e2) e2)) (= (op e2 e2) e2)) (= (op e3 e2) e2)) (= (op e4 e2) e2)) (= (op e5 e2) e2)))) (and (or (or (or (or (or (= (op e2 e0) e3) (= (op e2 e1) e3)) (= (op e2 e2) e3)) (= (op e2 e3) e3)) (= (op e2 e4) e3)) (= (op e2 e5) e3)) (or (or (or (or (or (= (op e0 e2) e3) (= (op e1 e2) e3)) (= (op e2 e2) e3)) (= (op e3 e2) e3)) (= (op e4 e2) e3)) (= (op e5 e2) e3)))) (and (or (or (or (or (or (= (op e2 e0) e4) (= (op e2 e1) e4)) (= (op e2 e2) e4)) (= (op e2 e3) e4)) (= (op e2 e4) e4)) (= (op e2 e5) e4)) (or (or (or (or (or (= (op e0 e2) e4) (= (op e1 e2) e4)) (= (op e2 e2) e4)) (= (op e3 e2) e4)) (= (op e4 e2) e4)) (= (op e5 e2) e4)))) (and (or (or (or (or (or (= (op e2 e0) e5) (= (op e2 e1) e5)) (= (op e2 e2) e5)) (= (op e2 e3) e5)) (= (op e2 e4) e5)) (= (op e2 e5) e5)) (or (or (or (or (or (= (op e0 e2) e5) (= (op e1 e2) e5)) (= (op e2 e2) e5)) (= (op e3 e2) e5)) (= (op e4 e2) e5)) (= (op e5 e2) e5))))) (and (and (and (and (and (and (or (or (or (or (or (= (op e3 e0) e0) (= (op e3 e1) e0)) (= (op e3 e2) e0)) (= (op e3 e3) e0)) (= (op e3 e4) e0)) (= (op e3 e5) e0)) (or (or (or (or (or (= (op e0 e3) e0) (= (op e1 e3) e0)) (= (op e2 e3) e0)) (= (op e3 e3) e0)) (= (op e4 e3) e0)) (= (op e5 e3) e0))) (and (or (or (or (or (or (= (op e3 e0) e1) (= (op e3 e1) e1)) (= (op e3 e2) e1)) (= (op e3 e3) e1)) (= (op e3 e4) e1)) (= (op e3 e5) e1)) (or (or (or (or (or (= (op e0 e3) e1) (= (op e1 e3) e1)) (= (op e2 e3) e1)) (= (op e3 e3) e1)) (= (op e4 e3) e1)) (= (op e5 e3) e1)))) (and (or (or (or (or (or (= (op e3 e0) e2) (= (op e3 e1) e2)) (= (op e3 e2) e2)) (= (op e3 e3) e2)) (= (op e3 e4) e2)) (= (op e3 e5) e2)) (or (or (or (or (or (= (op e0 e3) e2) (= (op e1 e3) e2)) (= (op e2 e3) e2)) (= (op e3 e3) e2)) (= (op e4 e3) e2)) (= (op e5 e3) e2)))) (and (or (or (or (or (or (= (op e3 e0) e3) (= (op e3 e1) e3)) (= (op e3 e2) e3)) (= (op e3 e3) e3)) (= (op e3 e4) e3)) (= (op e3 e5) e3)) (or (or (or (or (or (= (op e0 e3) e3) (= (op e1 e3) e3)) (= (op e2 e3) e3)) (= (op e3 e3) e3)) (= (op e4 e3) e3)) (= (op e5 e3) e3)))) (and (or (or (or (or (or (= (op e3 e0) e4) (= (op e3 e1) e4)) (= (op e3 e2) e4)) (= (op e3 e3) e4)) (= (op e3 e4) e4)) (= (op e3 e5) e4)) (or (or (or (or (or (= (op e0 e3) e4) (= (op e1 e3) e4)) (= (op e2 e3) e4)) (= (op e3 e3) e4)) (= (op e4 e3) e4)) (= (op e5 e3) e4)))) (and (or (or (or (or (or (= (op e3 e0) e5) (= (op e3 e1) e5)) (= (op e3 e2) e5)) (= (op e3 e3) e5)) (= (op e3 e4) e5)) (= (op e3 e5) e5)) (or (or (or (or (or (= (op e0 e3) e5) (= (op e1 e3) e5)) (= (op e2 e3) e5)) (= (op e3 e3) e5)) (= (op e4 e3) e5)) (= (op e5 e3) e5))))) (and (and (and (and (and (and (or (or (or (or (or (= (op e4 e0) e0) (= (op e4 e1) e0)) (= (op e4 e2) e0)) (= (op e4 e3) e0)) (= (op e4 e4) e0)) (= (op e4 e5) e0)) (or (or (or (or (or (= (op e0 e4) e0) (= (op e1 e4) e0)) (= (op e2 e4) e0)) (= (op e3 e4) e0)) (= (op e4 e4) e0)) (= (op e5 e4) e0))) (and (or (or (or (or (or (= (op e4 e0) e1) (= (op e4 e1) e1)) (= (op e4 e2) e1)) (= (op e4 e3) e1)) (= (op e4 e4) e1)) (= (op e4 e5) e1)) (or (or (or (or (or (= (op e0 e4) e1) (= (op e1 e4) e1)) (= (op e2 e4) e1)) (= (op e3 e4) e1)) (= (op e4 e4) e1)) (= (op e5 e4) e1)))) (and (or (or (or (or (or (= (op e4 e0) e2) (= (op e4 e1) e2)) (= (op e4 e2) e2)) (= (op e4 e3) e2)) (= (op e4 e4) e2)) (= (op e4 e5) e2)) (or (or (or (or (or (= (op e0 e4) e2) (= (op e1 e4) e2)) (= (op e2 e4) e2)) (= (op e3 e4) e2)) (= (op e4 e4) e2)) (= (op e5 e4) e2)))) (and (or (or (or (or (or (= (op e4 e0) e3) (= (op e4 e1) e3)) (= (op e4 e2) e3)) (= (op e4 e3) e3)) (= (op e4 e4) e3)) (= (op e4 e5) e3)) (or (or (or (or (or (= (op e0 e4) e3) (= (op e1 e4) e3)) (= (op e2 e4) e3)) (= (op e3 e4) e3)) (= (op e4 e4) e3)) (= (op e5 e4) e3)))) (and (or (or (or (or (or (= (op e4 e0) e4) (= (op e4 e1) e4)) (= (op e4 e2) e4)) (= (op e4 e3) e4)) (= (op e4 e4) e4)) (= (op e4 e5) e4)) (or (or (or (or (or (= (op e0 e4) e4) (= (op e1 e4) e4)) (= (op e2 e4) e4)) (= (op e3 e4) e4)) (= (op e4 e4) e4)) (= (op e5 e4) e4)))) (and (or (or (or (or (or (= (op e4 e0) e5) (= (op e4 e1) e5)) (= (op e4 e2) e5)) (= (op e4 e3) e5)) (= (op e4 e4) e5)) (= (op e4 e5) e5)) (or (or (or (or (or (= (op e0 e4) e5) (= (op e1 e4) e5)) (= (op e2 e4) e5)) (= (op e3 e4) e5)) (= (op e4 e4) e5)) (= (op e5 e4) e5))))) (and (and (and (and (and (and (or (or (or (or (or (= (op e5 e0) e0) (= (op e5 e1) e0)) (= (op e5 e2) e0)) (= (op e5 e3) e0)) (= (op e5 e4) e0)) (= (op e5 e5) e0)) (or (or (or (or (or (= (op e0 e5) e0) (= (op e1 e5) e0)) (= (op e2 e5) e0)) (= (op e3 e5) e0)) (= (op e4 e5) e0)) (= (op e5 e5) e0))) (and (or (or (or (or (or (= (op e5 e0) e1) (= (op e5 e1) e1)) (= (op e5 e2) e1)) (= (op e5 e3) e1)) (= (op e5 e4) e1)) (= (op e5 e5) e1)) (or (or (or (or (or (= (op e0 e5) e1) (= (op e1 e5) e1)) (= (op e2 e5) e1)) (= (op e3 e5) e1)) (= (op e4 e5) e1)) (= (op e5 e5) e1)))) (and (or (or (or (or (or (= (op e5 e0) e2) (= (op e5 e1) e2)) (= (op e5 e2) e2)) (= (op e5 e3) e2)) (= (op e5 e4) e2)) (= (op e5 e5) e2)) (or (or (or (or (or (= (op e0 e5) e2) (= (op e1 e5) e2)) (= (op e2 e5) e2)) (= (op e3 e5) e2)) (= (op e4 e5) e2)) (= (op e5 e5) e2)))) (and (or (or (or (or (or (= (op e5 e0) e3) (= (op e5 e1) e3)) (= (op e5 e2) e3)) (= (op e5 e3) e3)) (= (op e5 e4) e3)) (= (op e5 e5) e3)) (or (or (or (or (or (= (op e0 e5) e3) (= (op e1 e5) e3)) (= (op e2 e5) e3)) (= (op e3 e5) e3)) (= (op e4 e5) e3)) (= (op e5 e5) e3)))) (and (or (or (or (or (or (= (op e5 e0) e4) (= (op e5 e1) e4)) (= (op e5 e2) e4)) (= (op e5 e3) e4)) (= (op e5 e4) e4)) (= (op e5 e5) e4)) (or (or (or (or (or (= (op e0 e5) e4) (= (op e1 e5) e4)) (= (op e2 e5) e4)) (= (op e3 e5) e4)) (= (op e4 e5) e4)) (= (op e5 e5) e4)))) (and (or (or (or (or (or (= (op e5 e0) e5) (= (op e5 e1) e5)) (= (op e5 e2) e5)) (= (op e5 e3) e5)) (= (op e5 e4) e5)) (= (op e5 e5) e5)) (or (or (or (or (or (= (op e0 e5) e5) (= (op e1 e5) e5)) (= (op e2 e5) e5)) (= (op e3 e5) e5)) (= (op e4 e5) e5)) (= (op e5 e5) e5))))))
(assert (and (and (and (and (and (and (and (= (op unit e0) e0) (= (op e0 unit) e0)) (and (= (op unit e1) e1) (= (op e1 unit) e1))) (and (= (op unit e2) e2) (= (op e2 unit) e2))) (and (= (op unit e3) e3) (= (op e3 unit) e3))) (and (= (op unit e4) e4) (= (op e4 unit) e4))) (and (= (op unit e5) e5) (= (op e5 unit) e5))) (or (or (or (or (or (= unit e0) (= unit e1)) (= unit e2)) (= unit e3)) (= unit e4)) (= unit e5))))
(assert (or (or (or (or (or (or (or (or (or (or (not (= (op e0 e0) (op e0 e0))) (not (= (op e1 e0) (op e0 e1)))) (not (= (op e2 e0) (op e0 e2)))) (not (= (op e3 e0) (op e0 e3)))) (not (= (op e4 e0) (op e0 e4)))) (not (= (op e5 e0) (op e0 e5)))) (or (or (or (or (or (not (= (op e0 e1) (op e1 e0))) (not (= (op e1 e1) (op e1 e1)))) (not (= (op e2 e1) (op e1 e2)))) (not (= (op e3 e1) (op e1 e3)))) (not (= (op e4 e1) (op e1 e4)))) (not (= (op e5 e1) (op e1 e5))))) (or (or (or (or (or (not (= (op e0 e2) (op e2 e0))) (not (= (op e1 e2) (op e2 e1)))) (not (= (op e2 e2) (op e2 e2)))) (not (= (op e3 e2) (op e2 e3)))) (not (= (op e4 e2) (op e2 e4)))) (not (= (op e5 e2) (op e2 e5))))) (or (or (or (or (or (not (= (op e0 e3) (op e3 e0))) (not (= (op e1 e3) (op e3 e1)))) (not (= (op e2 e3) (op e3 e2)))) (not (= (op e3 e3) (op e3 e3)))) (not (= (op e4 e3) (op e3 e4)))) (not (= (op e5 e3) (op e3 e5))))) (or (or (or (or (or (not (= (op e0 e4) (op e4 e0))) (not (= (op e1 e4) (op e4 e1)))) (not (= (op e2 e4) (op e4 e2)))) (not (= (op e3 e4) (op e4 e3)))) (not (= (op e4 e4) (op e4 e4)))) (not (= (op e5 e4) (op e4 e5))))) (or (or (or (or (or (not (= (op e0 e5) (op e5 e0))) (not (= (op e1 e5) (op e5 e1)))) (not (= (op e2 e5) (op e5 e2)))) (not (= (op e3 e5) (op e5 e3)))) (not (= (op e4 e5) (op e5 e4)))) (not (= (op e5 e5) (op e5 e5))))))
(assert (or (or (or (or (or (and (and (and (and (and (not (= (op (op e0 e0) e0) e0)) (not (= (op (op e0 e1) e0) e1))) (not (= (op (op e0 e2) e0) e2))) (not (= (op (op e0 e3) e0) e3))) (not (= (op (op e0 e4) e0) e4))) (not (= (op (op e0 e5) e0) e5))) (and (and (and (and (and (not (= (op (op e1 e0) e1) e0)) (not (= (op (op e1 e1) e1) e1))) (not (= (op (op e1 e2) e1) e2))) (not (= (op (op e1 e3) e1) e3))) (not (= (op (op e1 e4) e1) e4))) (not (= (op (op e1 e5) e1) e5)))) (and (and (and (and (and (not (= (op (op e2 e0) e2) e0)) (not (= (op (op e2 e1) e2) e1))) (not (= (op (op e2 e2) e2) e2))) (not (= (op (op e2 e3) e2) e3))) (not (= (op (op e2 e4) e2) e4))) (not (= (op (op e2 e5) e2) e5)))) (and (and (and (and (and (not (= (op (op e3 e0) e3) e0)) (not (= (op (op e3 e1) e3) e1))) (not (= (op (op e3 e2) e3) e2))) (not (= (op (op e3 e3) e3) e3))) (not (= (op (op e3 e4) e3) e4))) (not (= (op (op e3 e5) e3) e5)))) (and (and (and (and (and (not (= (op (op e4 e0) e4) e0)) (not (= (op (op e4 e1) e4) e1))) (not (= (op (op e4 e2) e4) e2))) (not (= (op (op e4 e3) e4) e3))) (not (= (op (op e4 e4) e4) e4))) (not (= (op (op e4 e5) e4) e5)))) (and (and (and (and (and (not (= (op (op e5 e0) e5) e0)) (not (= (op (op e5 e1) e5) e1))) (not (= (op (op e5 e2) e5) e2))) (not (= (op (op e5 e3) e5) e3))) (not (= (op (op e5 e4) e5) e4))) (not (= (op (op e5 e5) e5) e5)))))
(assert (and (and (and (and (and (or (or (or (or (or (= (op (op e0 e0) (op e0 e0)) e0) (= (op (op e0 e1) (op e0 e1)) e1)) (= (op (op e0 e2) (op e0 e2)) e2)) (= (op (op e0 e3) (op e0 e3)) e3)) (= (op (op e0 e4) (op e0 e4)) e4)) (= (op (op e0 e5) (op e0 e5)) e5)) (or (or (or (or (or (= (op (op e1 e0) (op e1 e0)) e0) (= (op (op e1 e1) (op e1 e1)) e1)) (= (op (op e1 e2) (op e1 e2)) e2)) (= (op (op e1 e3) (op e1 e3)) e3)) (= (op (op e1 e4) (op e1 e4)) e4)) (= (op (op e1 e5) (op e1 e5)) e5))) (or (or (or (or (or (= (op (op e2 e0) (op e2 e0)) e0) (= (op (op e2 e1) (op e2 e1)) e1)) (= (op (op e2 e2) (op e2 e2)) e2)) (= (op (op e2 e3) (op e2 e3)) e3)) (= (op (op e2 e4) (op e2 e4)) e4)) (= (op (op e2 e5) (op e2 e5)) e5))) (or (or (or (or (or (= (op (op e3 e0) (op e3 e0)) e0) (= (op (op e3 e1) (op e3 e1)) e1)) (= (op (op e3 e2) (op e3 e2)) e2)) (= (op (op e3 e3) (op e3 e3)) e3)) (= (op (op e3 e4) (op e3 e4)) e4)) (= (op (op e3 e5) (op e3 e5)) e5))) (or (or (or (or (or (= (op (op e4 e0) (op e4 e0)) e0) (= (op (op e4 e1) (op e4 e1)) e1)) (= (op (op e4 e2) (op e4 e2)) e2)) (= (op (op e4 e3) (op e4 e3)) e3)) (= (op (op e4 e4) (op e4 e4)) e4)) (= (op (op e4 e5) (op e4 e5)) e5))) (or (or (or (or (or (= (op (op e5 e0) (op e5 e0)) e0) (= (op (op e5 e1) (op e5 e1)) e1)) (= (op (op e5 e2) (op e5 e2)) e2)) (= (op (op e5 e3) (op e5 e3)) e3)) (= (op (op e5 e4) (op e5 e4)) e4)) (= (op (op e5 e5) (op e5 e5)) e5))))
(assert (or (or (or (or (or (and (and (and (and (and (not (= (op (op e0 e0) (op e0 e0)) e0)) (not (= (op (op e1 e0) (op e1 e0)) e1))) (not (= (op (op e2 e0) (op e2 e0)) e2))) (not (= (op (op e3 e0) (op e3 e0)) e3))) (not (= (op (op e4 e0) (op e4 e0)) e4))) (not (= (op (op e5 e0) (op e5 e0)) e5))) (and (and (and (and (and (not (= (op (op e0 e1) (op e0 e1)) e0)) (not (= (op (op e1 e1) (op e1 e1)) e1))) (not (= (op (op e2 e1) (op e2 e1)) e2))) (not (= (op (op e3 e1) (op e3 e1)) e3))) (not (= (op (op e4 e1) (op e4 e1)) e4))) (not (= (op (op e5 e1) (op e5 e1)) e5)))) (and (and (and (and (and (not (= (op (op e0 e2) (op e0 e2)) e0)) (not (= (op (op e1 e2) (op e1 e2)) e1))) (not (= (op (op e2 e2) (op e2 e2)) e2))) (not (= (op (op e3 e2) (op e3 e2)) e3))) (not (= (op (op e4 e2) (op e4 e2)) e4))) (not (= (op (op e5 e2) (op e5 e2)) e5)))) (and (and (and (and (and (not (= (op (op e0 e3) (op e0 e3)) e0)) (not (= (op (op e1 e3) (op e1 e3)) e1))) (not (= (op (op e2 e3) (op e2 e3)) e2))) (not (= (op (op e3 e3) (op e3 e3)) e3))) (not (= (op (op e4 e3) (op e4 e3)) e4))) (not (= (op (op e5 e3) (op e5 e3)) e5)))) (and (and (and (and (and (not (= (op (op e0 e4) (op e0 e4)) e0)) (not (= (op (op e1 e4) (op e1 e4)) e1))) (not (= (op (op e2 e4) (op e2 e4)) e2))) (not (= (op (op e3 e4) (op e3 e4)) e3))) (not (= (op (op e4 e4) (op e4 e4)) e4))) (not (= (op (op e5 e4) (op e5 e4)) e5)))) (and (and (and (and (and (not (= (op (op e0 e5) (op e0 e5)) e0)) (not (= (op (op e1 e5) (op e1 e5)) e1))) (not (= (op (op e2 e5) (op e2 e5)) e2))) (not (= (op (op e3 e5) (op e3 e5)) e3))) (not (= (op (op e4 e5) (op e4 e5)) e4))) (not (= (op (op e5 e5) (op e5 e5)) e5)))))
(assert (and (and (and (and (and (and (or (not (= (op e0 (op e0 e0)) e0)) (= e0 unit)) (or (not (= (op e1 (op e1 e1)) e1)) (= e1 unit))) (or (not (= (op e2 (op e2 e2)) e2)) (= e2 unit))) (or (not (= (op e3 (op e3 e3)) e3)) (= e3 unit))) (or (not (= (op e4 (op e4 e4)) e4)) (= e4 unit))) (or (not (= (op e5 (op e5 e5)) e5)) (= e5 unit))) (and (and (and (and (and (or (or (or (or (or (and (= (op e0 (op e0 e0)) e0) (not (= (op e0 e0) unit))) (and (= (op e1 (op e1 e0)) e0) (not (= (op e1 e0) unit)))) (and (= (op e2 (op e2 e0)) e0) (not (= (op e2 e0) unit)))) (and (= (op e3 (op e3 e0)) e0) (not (= (op e3 e0) unit)))) (and (= (op e4 (op e4 e0)) e0) (not (= (op e4 e0) unit)))) (and (= (op e5 (op e5 e0)) e0) (not (= (op e5 e0) unit)))) (or (or (or (or (or (and (= (op e0 (op e0 e1)) e1) (not (= (op e0 e1) unit))) (and (= (op e1 (op e1 e1)) e1) (not (= (op e1 e1) unit)))) (and (= (op e2 (op e2 e1)) e1) (not (= (op e2 e1) unit)))) (and (= (op e3 (op e3 e1)) e1) (not (= (op e3 e1) unit)))) (and (= (op e4 (op e4 e1)) e1) (not (= (op e4 e1) unit)))) (and (= (op e5 (op e5 e1)) e1) (not (= (op e5 e1) unit))))) (or (or (or (or (or (and (= (op e0 (op e0 e2)) e2) (not (= (op e0 e2) unit))) (and (= (op e1 (op e1 e2)) e2) (not (= (op e1 e2) unit)))) (and (= (op e2 (op e2 e2)) e2) (not (= (op e2 e2) unit)))) (and (= (op e3 (op e3 e2)) e2) (not (= (op e3 e2) unit)))) (and (= (op e4 (op e4 e2)) e2) (not (= (op e4 e2) unit)))) (and (= (op e5 (op e5 e2)) e2) (not (= (op e5 e2) unit))))) (or (or (or (or (or (and (= (op e0 (op e0 e3)) e3) (not (= (op e0 e3) unit))) (and (= (op e1 (op e1 e3)) e3) (not (= (op e1 e3) unit)))) (and (= (op e2 (op e2 e3)) e3) (not (= (op e2 e3) unit)))) (and (= (op e3 (op e3 e3)) e3) (not (= (op e3 e3) unit)))) (and (= (op e4 (op e4 e3)) e3) (not (= (op e4 e3) unit)))) (and (= (op e5 (op e5 e3)) e3) (not (= (op e5 e3) unit))))) (or (or (or (or (or (and (= (op e0 (op e0 e4)) e4) (not (= (op e0 e4) unit))) (and (= (op e1 (op e1 e4)) e4) (not (= (op e1 e4) unit)))) (and (= (op e2 (op e2 e4)) e4) (not (= (op e2 e4) unit)))) (and (= (op e3 (op e3 e4)) e4) (not (= (op e3 e4) unit)))) (and (= (op e4 (op e4 e4)) e4) (not (= (op e4 e4) unit)))) (and (= (op e5 (op e5 e4)) e4) (not (= (op e5 e4) unit))))) (or (or (or (or (or (and (= (op e0 (op e0 e5)) e5) (not (= (op e0 e5) unit))) (and (= (op e1 (op e1 e5)) e5) (not (= (op e1 e5) unit)))) (and (= (op e2 (op e2 e5)) e5) (not (= (op e2 e5) unit)))) (and (= (op e3 (op e3 e5)) e5) (not (= (op e3 e5) unit)))) (and (= (op e4 (op e4 e5)) e5) (not (= (op e4 e5) unit)))) (and (= (op e5 (op e5 e5)) e5) (not (= (op e5 e5) unit)))))))
(assert (= unit e0))
(assert (and (and (and (and (and (and (and (and (and (and (and (and (and (and (and (and (and (and (and (and (not (= (op e0 e0) (op e1 e0))) (not (= (op e0 e0) (op e2 e0)))) (not (= (op e0 e0) (op e3 e0)))) (not (= (op e0 e0) (op e4 e0)))) (not (= (op e0 e0) (op e5 e0)))) (not (= (op e1 e0) (op e2 e0)))) (not (= (op e1 e0) (op e3 e0)))) (not (= (op e1 e0) (op e4 e0)))) (not (= (op e1 e0) (op e5 e0)))) (not (= (op e2 e0) (op e3 e0)))) (not (= (op e2 e0) (op e4 e0)))) (not (= (op e2 e0) (op e5 e0)))) (not (= (op e3 e0) (op e4 e0)))) (not (= (op e3 e0) (op e5 e0)))) (not (= (op e4 e0) (op e5 e0)))) (and (and (and (and (and (and (and (and (and (and (and (and (and (and (not (= (op e0 e1) (op e1 e1))) (not (= (op e0 e1) (op e2 e1)))) (not (= (op e0 e1) (op e3 e1)))) (not (= (op e0 e1) (op e4 e1)))) (not (= (op e0 e1) (op e5 e1)))) (not (= (op e1 e1) (op e2 e1)))) (not (= (op e1 e1) (op e3 e1)))) (not (= (op e1 e1) (op e4 e1)))) (not (= (op e1 e1) (op e5 e1)))) (not (= (op e2 e1) (op e3 e1)))) (not (= (op e2 e1) (op e4 e1)))) (not (= (op e2 e1) (op e5 e1)))) (not (= (op e3 e1) (op e4 e1)))) (not (= (op e3 e1) (op e5 e1)))) (not (= (op e4 e1) (op e5 e1))))) (and (and (and (and (and (and (and (and (and (and (and (and (and (and (not (= (op e0 e2) (op e1 e2))) (not (= (op e0 e2) (op e2 e2)))) (not (= (op e0 e2) (op e3 e2)))) (not (= (op e0 e2) (op e4 e2)))) (not (= (op e0 e2) (op e5 e2)))) (not (= (op e1 e2) (op e2 e2)))) (not (= (op e1 e2) (op e3 e2)))) (not (= (op e1 e2) (op e4 e2)))) (not (= (op e1 e2) (op e5 e2)))) (not (= (op e2 e2) (op e3 e2)))) (not (= (op e2 e2) (op e4 e2)))) (not (= (op e2 e2) (op e5 e2)))) (not (= (op e3 e2) (op e4 e2)))) (not (= (op e3 e2) (op e5 e2)))) (not (= (op e4 e2) (op e5 e2))))) (and (and (and (and (and (and (and (and (and (and (and (and (and (and (not (= (op e0 e3) (op e1 e3))) (not (= (op e0 e3) (op e2 e3)))) (not (= (op e0 e3) (op e3 e3)))) (not (= (op e0 e3) (op e4 e3)))) (not (= (op e0 e3) (op e5 e3)))) (not (= (op e1 e3) (op e2 e3)))) (not (= (op e1 e3) (op e3 e3)))) (not (= (op e1 e3) (op e4 e3)))) (not (= (op e1 e3) (op e5 e3)))) (not (= (op e2 e3) (op e3 e3)))) (not (= (op e2 e3) (op e4 e3)))) (not (= (op e2 e3) (op e5 e3)))) (not (= (op e3 e3) (op e4 e3)))) (not (= (op e3 e3) (op e5 e3)))) (not (= (op e4 e3) (op e5 e3))))) (and (and (and (and (and (and (and (and (and (and (and (and (and (and (not (= (op e0 e4) (op e1 e4))) (not (= (op e0 e4) (op e2 e4)))) (not (= (op e0 e4) (op e3 e4)))) (not (= (op e0 e4) (op e4 e4)))) (not (= (op e0 e4) (op e5 e4)))) (not (= (op e1 e4) (op e2 e4)))) (not (= (op e1 e4) (op e3 e4)))) (not (= (op e1 e4) (op e4 e4)))) (not (= (op e1 e4) (op e5 e4)))) (not (= (op e2 e4) (op e3 e4)))) (not (= (op e2 e4) (op e4 e4)))) (not (= (op e2 e4) (op e5 e4)))) (not (= (op e3 e4) (op e4 e4)))) (not (= (op e3 e4) (op e5 e4)))) (not (= (op e4 e4) (op e5 e4))))) (and (and (and (and (and (and (and (and (and (and (and (and (and (and (not (= (op e0 e5) (op e1 e5))) (not (= (op e0 e5) (op e2 e5)))) (not (= (op e0 e5) (op e3 e5)))) (not (= (op e0 e5) (op e4 e5)))) (not (= (op e0 e5) (op e5 e5)))) (not (= (op e1 e5) (op e2 e5)))) (not (= (op e1 e5) (op e3 e5)))) (not (= (op e1 e5) (op e4 e5)))) (not (= (op e1 e5) (op e5 e5)))) (not (= (op e2 e5) (op e3 e5)))) (not (= (op e2 e5) (op e4 e5)))) (not (= (op e2 e5) (op e5 e5)))) (not (= (op e3 e5) (op e4 e5)))) (not (= (op e3 e5) (op e5 e5)))) (not (= (op e4 e5) (op e5 e5))))) (and (and (and (and (and (and (and (and (and (and (and (and (and (and (and (and (and (and (and (not (= (op e0 e0) (op e0 e1))) (not (= (op e0 e0) (op e0 e2)))) (not (= (op e0 e0) (op e0 e3)))) (not (= (op e0 e0) (op e0 e4)))) (not (= (op e0 e0) (op e0 e5)))) (not (= (op e0 e1) (op e0 e2)))) (not (= (op e0 e1) (op e0 e3)))) (not (= (op e0 e1) (op e0 e4)))) (not (= (op e0 e1) (op e0 e5)))) (not (= (op e0 e2) (op e0 e3)))) (not (= (op e0 e2) (op e0 e4)))) (not (= (op e0 e2) (op e0 e5)))) (not (= (op e0 e3) (op e0 e4)))) (not (= (op e0 e3) (op e0 e5)))) (not (= (op e0 e4) (op e0 e5)))) (and (and (and (and (and (and (and (and (and (and (and (and (and (and (not (= (op e1 e0) (op e1 e1))) (not (= (op e1 e0) (op e1 e2)))) (not (= (op e1 e0) (op e1 e3)))) (not (= (op e1 e0) (op e1 e4)))) (not (= (op e1 e0) (op e1 e5)))) (not (= (op e1 e1) (op e1 e2)))) (not (= (op e1 e1) (op e1 e3)))) (not (= (op e1 e1) (op e1 e4)))) (not (= (op e1 e1) (op e1 e5)))) (not (= (op e1 e2) (op e1 e3)))) (not (= (op e1 e2) (op e1 e4)))) (not (= (op e1 e2) (op e1 e5)))) (not (= (op e1 e3) (op e1 e4)))) (not (= (op e1 e3) (op e1 e5)))) (not (= (op e1 e4) (op e1 e5))))) (and (and (and (and (and (and (and (and (and (and (and (and (and (and (not (= (op e2 e0) (op e2 e1))) (not (= (op e2 e0) (op e2 e2)))) (not (= (op e2 e0) (op e2 e3)))) (not (= (op e2 e0) (op e2 e4)))) (not (= (op e2 e0) (op e2 e5)))) (not (= (op e2 e1) (op e2 e2)))) (not (= (op e2 e1) (op e2 e3)))) (not (= (op e2 e1) (op e2 e4)))) (not (= (op e2 e1) (op e2 e5)))) (not (= (op e2 e2) (op e2 e3)))) (not (= (op e2 e2) (op e2 e4)))) (not (= (op e2 e2) (op e2 e5)))) (not (= (op e2 e3) (op e2 e4)))) (not (= (op e2 e3) (op e2 e5)))) (not (= (op e2 e4) (op e2 e5))))) (and (and (and (and (and (and (and (and (and (and (and (and (and (and (not (= (op e3 e0) (op e3 e1))) (not (= (op e3 e0) (op e3 e2)))) (not (= (op e3 e0) (op e3 e3)))) (not (= (op e3 e0) (op e3 e4)))) (not (= (op e3 e0) (op e3 e5)))) (not (= (op e3 e1) (op e3 e2)))) (not (= (op e3 e1) (op e3 e3)))) (not (= (op e3 e1) (op e3 e4)))) (not (= (op e3 e1) (op e3 e5)))) (not (= (op e3 e2) (op e3 e3)))) (not (= (op e3 e2) (op e3 e4)))) (not (= (op e3 e2) (op e3 e5)))) (not (= (op e3 e3) (op e3 e4)))) (not (= (op e3 e3) (op e3 e5)))) (not (= (op e3 e4) (op e3 e5))))) (and (and (and (and (and (and (and (and (and (and (and (and (and (and (not (= (op e4 e0) (op e4 e1))) (not (= (op e4 e0) (op e4 e2)))) (not (= (op e4 e0) (op e4 e3)))) (not (= (op e4 e0) (op e4 e4)))) (not (= (op e4 e0) (op e4 e5)))) (not (= (op e4 e1) (op e4 e2)))) (not (= (op e4 e1) (op e4 e3)))) (not (= (op e4 e1) (op e4 e4)))) (not (= (op e4 e1) (op e4 e5)))) (not (= (op e4 e2) (op e4 e3)))) (not (= (op e4 e2) (op e4 e4)))) (not (= (op e4 e2) (op e4 e5)))) (not (= (op e4 e3) (op e4 e4)))) (not (= (op e4 e3) (op e4 e5)))) (not (= (op e4 e4) (op e4 e5))))) (and (and (and (and (and (and (and (and (and (and (and (and (and (and (not (= (op e5 e0) (op e5 e1))) (not (= (op e5 e0) (op e5 e2)))) (not (= (op e5 e0) (op e5 e3)))) (not (= (op e5 e0) (op e5 e4)))) (not (= (op e5 e0) (op e5 e5)))) (not (= (op e5 e1) (op e5 e2)))) (not (= (op e5 e1) (op e5 e3)))) (not (= (op e5 e1) (op e5 e4)))) (not (= (op e5 e1) (op e5 e5)))) (not (= (op e5 e2) (op e5 e3)))) (not (= (op e5 e2) (op e5 e4)))) (not (= (op e5 e2) (op e5 e5)))) (not (= (op e5 e3) (op e5 e4)))) (not (= (op e5 e3) (op e5 e5)))) (not (= (op e5 e4) (op e5 e5)))))))
(assert (and (and (and (and (and (and (and (and (and (and (and (and (and (and (not (= e0 e1)) (not (= e0 e2))) (not (= e0 e3))) (not (= e0 e4))) (not (= e0 e5))) (not (= e1 e2))) (not (= e1 e3))) (not (= e1 e4))) (not (= e1 e5))) (not (= e2 e3))) (not (= e2 e4))) (not (= e2 e5))) (not (= e3 e4))) (not (= e3 e5))) (not (= e4 e5))))
(check-sat)
(exit)
